SECTION Graph
Nodes 64
Edges 288
E 2 1 201
E 3 1 204
E 3 2 105
E 4 1 201
E 4 2 101
E 4 3 108
E 5 1 202
E 6 2 110
E 6 5 108
E 7 3 101
E 7 5 104
E 7 6 108
E 8 4 107
E 8 5 105
E 8 6 106
E 8 7 102
E 9 1 208
E 9 5 101
E 10 2 102
E 10 6 110
E 10 9 102
E 11 3 101
E 11 7 104
E 11 9 102
E 11 10 109
E 12 4 107
E 12 8 110
E 12 9 104
E 12 10 102
E 12 11 106
E 13 1 209
E 13 5 110
E 13 9 109
E 14 2 105
E 14 6 108
E 14 10 109
E 14 13 102
E 15 3 103
E 15 7 105
E 15 11 103
E 15 13 103
E 15 14 106
E 16 4 202
E 16 8 206
E 16 12 208
E 16 13 201
E 16 14 207
E 16 15 209
E 17 1 210
E 18 2 103
E 18 17 104
E 19 3 103
E 19 17 110
E 19 18 104
E 20 4 205
E 20 17 210
E 20 18 208
E 20 19 204
E 21 5 102
E 21 17 106
E 22 6 102
E 22 18 109
E 22 21 101
E 23 7 102
E 23 19 107
E 23 21 102
E 23 22 104
E 24 8 110
E 24 20 206
E 24 21 107
E 24 22 104
E 24 23 106
E 25 9 107
E 25 17 105
E 25 21 106
E 26 10 109
E 26 18 109
E 26 22 108
E 26 25 110
E 27 11 103
E 27 19 107
E 27 23 110
E 27 25 102
E 27 26 101
E 28 12 103
E 28 20 203
E 28 24 105
E 28 25 101
E 28 26 110
E 28 27 106
E 29 13 202
E 29 17 205
E 29 21 207
E 29 25 204
E 30 14 101
E 30 18 105
E 30 22 102
E 30 26 104
E 30 29 202
E 31 15 110
E 31 19 110
E 31 23 102
E 31 27 107
E 31 29 202
E 31 30 102
E 32 16 208
E 32 20 210
E 32 24 110
E 32 28 102
E 32 29 203
E 32 30 101
E 32 31 109
E 33 1 204
E 33 17 104
E 34 2 107
E 34 18 105
E 34 33 102
E 35 3 101
E 35 19 102
E 35 33 107
E 35 34 105
E 36 4 108
E 36 20 208
E 36 33 110
E 36 34 106
E 36 35 110
E 37 5 108
E 37 21 104
E 37 33 110
E 38 6 203
E 38 22 203
E 38 34 205
E 38 37 202
E 39 7 102
E 39 23 104
E 39 35 107
E 39 37 109
E 39 38 205
E 40 8 104
E 40 24 103
E 40 36 102
E 40 37 101
E 40 38 202
E 40 39 101
E 41 9 107
E 41 25 108
E 41 33 109
E 41 37 108
E 42 10 107
E 42 26 110
E 42 34 107
E 42 38 205
E 42 41 103
E 43 11 208
E 43 27 205
E 43 35 202
E 43 39 207
E 43 41 204
E 43 42 210
E 44 12 108
E 44 28 103
E 44 36 105
E 44 40 108
E 44 41 101
E 44 42 108
E 44 43 201
E 45 13 108
E 45 29 207
E 45 33 109
E 45 37 104
E 45 41 109
E 46 14 102
E 46 30 108
E 46 34 103
E 46 38 202
E 46 42 105
E 46 45 108
E 47 15 103
E 47 31 102
E 47 35 102
E 47 39 106
E 47 43 204
E 47 45 105
E 47 46 102
E 48 16 209
E 48 32 106
E 48 36 105
E 48 40 110
E 48 44 109
E 48 45 109
E 48 46 102
E 48 47 106
E 49 1 206
E 49 17 102
E 49 33 103
E 50 2 107
E 50 18 110
E 50 34 101
E 50 49 104
E 51 3 110
E 51 19 106
E 51 35 104
E 51 49 104
E 51 50 107
E 52 4 105
E 52 20 209
E 52 36 108
E 52 49 104
E 52 50 103
E 52 51 104
E 53 5 104
E 53 21 102
E 53 37 106
E 53 49 104
E 54 6 106
E 54 22 109
E 54 38 203
E 54 50 110
E 54 53 109
E 55 7 210
E 55 23 205
E 55 39 205
E 55 51 205
E 55 53 202
E 55 54 205
E 56 8 110
E 56 24 104
E 56 40 107
E 56 52 104
E 56 53 103
E 56 54 101
E 56 55 209
E 57 9 109
E 57 25 109
E 57 41 110
E 57 49 105
E 57 53 104
E 58 10 202
E 58 26 210
E 58 42 209
E 58 50 209
E 58 54 207
E 58 57 204
E 59 11 110
E 59 27 108
E 59 43 206
E 59 51 109
E 59 55 202
E 59 57 110
E 59 58 207
E 60 12 101
E 60 28 106
E 60 44 110
E 60 52 107
E 60 56 108
E 60 57 102
E 60 58 202
E 60 59 106
E 61 13 109
E 61 29 206
E 61 45 102
E 61 49 102
E 61 53 101
E 61 57 103
E 62 14 109
E 62 30 103
E 62 46 106
E 62 50 103
E 62 54 110
E 62 58 201
E 62 61 101
E 63 15 104
E 63 31 104
E 63 47 107
E 63 51 110
E 63 55 210
E 63 59 109
E 63 61 110
E 63 62 102
E 64 16 206
E 64 32 106
E 64 48 103
E 64 52 101
E 64 56 102
E 64 60 101
E 64 61 109
E 64 62 102
E 64 63 104
END

SECTION Terminals
Terminals 8
T 1
T 16
T 20
T 29
T 38
T 43
T 55
T 58
END

EOF
